=====UNKNOWN=====
% time elapsed: 1800.04 s
%%%mzn-stat: initTime=0.024198387
%%%mzn-stat: nodes=2398125
%%%mzn-stat: restarts=1876
%%%mzn-stat: peakDepth=737
%%%mzn-stat: solveTime=1799.659226591
%%%mzn-stat: variables=1808
%%%mzn-stat: propagators=1460
%%%mzn-stat: failures=1583999
%%%mzn-stat: propagations=44136105
%%%mzn-stat: nogoods=1583999
%%%mzn-stat: AverageConflictSize=44.34048948263225
%%%mzn-stat: NumUnitNogoodsLearned=150
%%%mzn-stat: AverageLearnedNogoodLength=52.96270010271471
%%%mzn-stat: AverageBacktrackAmount=0
%%%mzn-stat: AverageLbd=28.604000381313373
%%%mzn-stat-end
